50
    1   311   345
    2   466   493
    3   225   267
    4   532   500
    5   535   541
    6   488   491
    7   258   270
    8   204   181
    9    93    46
   10   466   459
   11   352   357
   12   126   100
   13   331   293
   14   288   261
   15   247   206
   16    35    54
   17   552   510
   18     1    25
   19   416   458
   20     1     7
   21     1    14
   22    81   113
   23   139   101
   24   510   496
   25   100   150
   26    66   121
   27   612   595
   28   406   417
   29   233   239
   30   252   304
   31   443   395
   32   519   541
   33    85   125
   34   442   414
   35   260   245
   36   504   562
   37   598   549
   38   137   118
   39   437   437
   40   594   576
   41   425   416
   42   128   123
   43   225   247
   44   179   159
   45   202   216
   46   455   444
   47   199   195
   48   587   579
   49   266   216
   50     1    57
601
